\ENCODING=ISO-8859-1
\Problem name: instances

Maximize
 obj:
Subject To
 c1: 830 x1 + 780 x2 + 230 x3 + 536 x4 + 866 x5 + 881 x6 + 250 x7 + 10 x8
     + 135 x9 + 234 x10 + 703 x11 + 136 x12 + 867 x13 + 804 x14 + 332 x15
     + 567 x16 + 33 x17 + 172 x18 + 697 x19 + 460 x20 + 46 x21 + 359 x22
     + 587 x23 + 359 x24 + 814 x25 + 153 x26 + 812 x27 + 602 x28 + 247 x29
     + 353 x30 <= 6927
Bounds
 0 <= x1 <= 1
 0 <= x2 <= 1
 0 <= x3 <= 1
 0 <= x4 <= 1
 0 <= x5 <= 1
 0 <= x6 <= 1
 0 <= x7 <= 1
 0 <= x8 <= 1
 0 <= x9 <= 1
 0 <= x10 <= 1
 0 <= x11 <= 1
 0 <= x12 <= 1
 0 <= x13 <= 1
 0 <= x14 <= 1
 0 <= x15 <= 1
 0 <= x16 <= 1
 0 <= x17 <= 1
 0 <= x18 <= 1
 0 <= x19 <= 1
 0 <= x20 <= 1
 0 <= x21 <= 1
 0 <= x22 <= 1
 0 <= x23 <= 1
 0 <= x24 <= 1
 0 <= x25 <= 1
 0 <= x26 <= 1
 0 <= x27 <= 1
 0 <= x28 <= 1
 0 <= x29 <= 1
 0 <= x30 <= 1
Binaries
 x1  x2  x3  x4  x5  x6  x7  x8  x9  x10  x11  x12  x13  x14  x15  x16  x17 
 x18  x19  x20  x21  x22  x23  x24  x25  x26  x27  x28  x29  x30 
End
